(set-logic LIA)

(declare-const sn Int)
(declare-const sn! Int)
(declare-const i Int)
(declare-const i! Int)

(declare-const sn_25 Int)
(declare-const sn_19 Int)
(declare-const sn_16 Int)
(declare-const i_24 Int)
(declare-const i_18 Int)
(declare-const i_17 Int)

(define-fun inv-f((i Int)(sn Int)) Bool
